tsp_instances/TSP20/instance59.tsp
NODE_COORD_SECTION
0 38 76
1 101 24
2 144 77
3 66 184
4 95 148
5 91 153
6 164 54
7 128 180
8 143 183
9 92 2
10 164 64
11 96 62
12 174 101
13 58 50
14 147 12
15 39 161
16 92 181
17 200 167
18 193 28
19 35 22
