tsp_instances/TSP20/instance59.opt.tour
TOUR_SECTION
1
16
4
17
6
5
8
9
18
13
3
11
7
19
15
10
2
12
14
20
-1